p cnf 420 640
27 -42 45 101 102 0
27 -42 45 101 -102 0
27 -42 45 -101 102 0
27 -42 45 -101 -102 0
-27 -42 45 103 104 0
-27 -42 45 103 -104 0
-27 -42 45 -103 104 0
-27 -42 45 -103 -104 0
-45 53 55 105 106 0
-45 53 55 105 -106 0
-45 53 55 -105 106 0
-45 53 55 -105 -106 0
-45 -53 55 107 108 0
-45 -53 55 107 -108 0
-45 -53 55 -107 108 0
-45 -53 55 -107 -108 0
-42 -45 48 109 110 0
-42 -45 48 109 -110 0
-42 -45 48 -109 110 0
-42 -45 48 -109 -110 0
-45 -48 -55 111 112 0
-45 -48 -55 111 -112 0
-45 -48 -55 -111 112 0
-45 -48 -55 -111 -112 0
42 44 86 113 114 0
42 44 86 113 -114 0
42 44 86 -113 114 0
42 44 86 -113 -114 0
42 -44 86 115 116 0
42 -44 86 115 -116 0
42 -44 86 -115 116 0
42 -44 86 -115 -116 0
42 -84 -86 117 118 0
42 -84 -86 117 -118 0
42 -84 -86 -117 118 0
42 -84 -86 -117 -118 0
-17 84 -86 119 120 0
-17 84 -86 119 -120 0
-17 84 -86 -119 120 0
-17 84 -86 -119 -120 0
17 62 84 121 122 0
17 62 84 121 -122 0
17 62 84 -121 122 0
17 62 84 -121 -122 0
-4 17 81 123 124 0
-4 17 81 123 -124 0
-4 17 81 -123 124 0
-4 17 81 -123 -124 0
-4 -62 -81 125 126 0
-4 -62 -81 125 -126 0
-4 -62 -81 -125 126 0
-4 -62 -81 -125 -126 0
4 -7 -62 127 128 0
4 -7 -62 127 -128 0
4 -7 -62 -127 128 0
4 -7 -62 -127 -128 0
7 14 17 129 130 0
7 14 17 129 -130 0
7 14 17 -129 130 0
7 14 17 -129 -130 0
4 14 -17 131 132 0
4 14 -17 131 -132 0
4 14 -17 -131 132 0
4 14 -17 -131 -132 0
7 -14 58 133 134 0
7 -14 58 133 -134 0
7 -14 58 -133 134 0
7 -14 58 -133 -134 0
2 -14 -58 135 136 0
2 -14 -58 135 -136 0
2 -14 -58 -135 136 0
2 -14 -58 -135 -136 0
-2 -14 69 137 138 0
-2 -14 69 137 -138 0
-2 -14 69 -137 138 0
-2 -14 69 -137 -138 0
-2 -69 -71 139 140 0
-2 -69 -71 139 -140 0
-2 -69 -71 -139 140 0
-2 -69 -71 -139 -140 0
-2 -59 -69 141 142 0
-2 -59 -69 141 -142 0
-2 -59 -69 -141 142 0
-2 -59 -69 -141 -142 0
1 -56 71 143 144 0
1 -56 71 143 -144 0
1 -56 71 -143 144 0
1 -56 71 -143 -144 0
-1 -56 71 145 146 0
-1 -56 71 145 -146 0
-1 -56 71 -145 146 0
-1 -56 71 -145 -146 0
-36 56 85 147 148 0
-36 56 85 147 -148 0
-36 56 85 -147 148 0
-36 56 85 -147 -148 0
-36 56 59 149 150 0
-36 56 59 149 -150 0
-36 56 59 -149 150 0
-36 56 59 -149 -150 0
-11 36 59 151 152 0
-11 36 59 151 -152 0
-11 36 59 -151 152 0
-11 36 59 -151 -152 0
36 -37 59 153 154 0
36 -37 59 153 -154 0
36 -37 59 -153 154 0
36 -37 59 -153 -154 0
37 -64 100 155 156 0
37 -64 100 155 -156 0
37 -64 100 -155 156 0
37 -64 100 -155 -156 0
11 -64 -100 157 158 0
11 -64 -100 157 -158 0
11 -64 -100 -157 158 0
11 -64 -100 -157 -158 0
37 64 -81 159 160 0
37 64 -81 159 -160 0
37 64 -81 -159 160 0
37 64 -81 -159 -160 0
15 64 81 161 162 0
15 64 81 161 -162 0
15 64 81 -161 162 0
15 64 81 -161 -162 0
-15 -60 64 163 164 0
-15 -60 64 163 -164 0
-15 -60 64 -163 164 0
-15 -60 64 -163 -164 0
-15 60 68 165 166 0
-15 60 68 165 -166 0
-15 60 68 -165 166 0
-15 60 68 -165 -166 0
8 60 -68 167 168 0
8 60 -68 167 -168 0
8 60 -68 -167 168 0
8 60 -68 -167 -168 0
3 -8 89 169 170 0
3 -8 89 169 -170 0
3 -8 89 -169 170 0
3 -8 89 -169 -170 0
-3 -68 89 171 172 0
-3 -68 89 171 -172 0
-3 -68 89 -171 172 0
-3 -68 89 -171 -172 0
-8 79 -89 173 174 0
-8 79 -89 173 -174 0
-8 79 -89 -173 174 0
-8 79 -89 -173 -174 0
39 -51 -89 175 176 0
39 -51 -89 175 -176 0
39 -51 -89 -175 176 0
39 -51 -89 -175 -176 0
-39 -51 -79 177 178 0
-39 -51 -79 177 -178 0
-39 -51 -79 -177 178 0
-39 -51 -79 -177 -178 0
-26 51 -79 179 180 0
-26 51 -79 179 -180 0
-26 51 -79 -179 180 0
-26 51 -79 -179 -180 0
-25 26 51 181 182 0
-25 26 51 181 -182 0
-25 26 51 -181 182 0
-25 26 51 -181 -182 0
25 26 -44 183 184 0
25 26 -44 183 -184 0
25 26 -44 -183 184 0
25 26 -44 -183 -184 0
22 63 -87 185 186 0
22 63 -87 185 -186 0
22 63 -87 -185 186 0
22 63 -87 -185 -186 0
26 63 -87 187 188 0
26 63 -87 187 -188 0
26 63 -87 -187 188 0
26 63 -87 -187 -188 0
25 -63 -87 189 190 0
25 -63 -87 189 -190 0
25 -63 -87 -189 190 0
25 -63 -87 -189 -190 0
-23 25 87 191 192 0
-23 25 87 191 -192 0
-23 25 87 -191 192 0
-23 25 87 -191 -192 0
43 87 -93 193 194 0
43 87 -93 193 -194 0
43 87 -93 -193 194 0
43 87 -93 -193 -194 0
23 -43 -93 195 196 0
23 -43 -93 195 -196 0
23 -43 -93 -195 196 0
23 -43 -93 -195 -196 0
-5 23 93 197 198 0
-5 23 93 197 -198 0
-5 23 93 -197 198 0
-5 23 93 -197 -198 0
5 9 93 199 200 0
5 9 93 199 -200 0
5 9 93 -199 200 0
5 9 93 -199 -200 0
5 -9 35 201 202 0
5 -9 35 201 -202 0
5 -9 35 -201 202 0
5 -9 35 -201 -202 0
-9 -24 -35 203 204 0
-9 -24 -35 203 -204 0
-9 -24 -35 -203 204 0
-9 -24 -35 -203 -204 0
-35 58 -97 205 206 0
-35 58 -97 205 -206 0
-35 58 -97 -205 206 0
-35 58 -97 -205 -206 0
24 -58 -97 207 208 0
24 -58 -97 207 -208 0
24 -58 -97 -207 208 0
24 -58 -97 -207 -208 0
-35 -41 97 209 210 0
-35 -41 97 209 -210 0
-35 -41 97 -209 210 0
-35 -41 97 -209 -210 0
-31 41 97 211 212 0
-31 41 97 211 -212 0
-31 41 97 -211 212 0
-31 41 97 -211 -212 0
31 41 90 213 214 0
31 41 90 213 -214 0
31 41 90 -213 214 0
31 41 90 -213 -214 0
41 -90 92 215 216 0
41 -90 92 215 -216 0
41 -90 92 -215 216 0
41 -90 92 -215 -216 0
-16 -90 -92 217 218 0
-16 -90 -92 217 -218 0
-16 -90 -92 -217 218 0
-16 -90 -92 -217 -218 0
16 -92 -98 219 220 0
16 -92 -98 219 -220 0
16 -92 -98 -219 220 0
16 -92 -98 -219 -220 0
16 -70 98 221 222 0
16 -70 98 221 -222 0
16 -70 98 -221 222 0
16 -70 98 -221 -222 0
16 -75 98 223 224 0
16 -75 98 223 -224 0
16 -75 98 -223 224 0
16 -75 98 -223 -224 0
67 75 94 225 226 0
67 75 94 225 -226 0
67 75 94 -225 226 0
67 75 94 -225 -226 0
12 70 94 227 228 0
12 70 94 227 -228 0
12 70 94 -227 228 0
12 70 94 -227 -228 0
-12 70 75 229 230 0
-12 70 75 229 -230 0
-12 70 75 -229 230 0
-12 70 75 -229 -230 0
-27 70 -94 231 232 0
-27 70 -94 231 -232 0
-27 70 -94 -231 232 0
-27 70 -94 -231 -232 0
27 30 -94 233 234 0
27 30 -94 233 -234 0
27 30 -94 -233 234 0
27 30 -94 -233 -234 0
27 -30 -65 235 236 0
27 -30 -65 235 -236 0
27 -30 -65 -235 236 0
27 -30 -65 -235 -236 0
-30 63 65 237 238 0
-30 63 65 237 -238 0
-30 63 65 -237 238 0
-30 63 65 -237 -238 0
29 40 65 239 240 0
29 40 65 239 -240 0
29 40 65 -239 240 0
29 40 65 -239 -240 0
-29 -30 40 241 242 0
-29 -30 40 241 -242 0
-29 -30 40 -241 242 0
-29 -30 40 -241 -242 0
-40 -63 76 243 244 0
-40 -63 76 243 -244 0
-40 -63 76 -243 244 0
-40 -63 76 -243 -244 0
-13 -40 -76 245 246 0
-13 -40 -76 245 -246 0
-13 -40 -76 -245 246 0
-13 -40 -76 -245 -246 0
13 38 -76 247 248 0
13 38 -76 247 -248 0
13 38 -76 -247 248 0
13 38 -76 -247 -248 0
13 38 -96 249 250 0
13 38 -96 249 -250 0
13 38 -96 -249 250 0
13 38 -96 -249 -250 0
-38 -76 -100 251 252 0
-38 -76 -100 251 -252 0
-38 -76 -100 -251 252 0
-38 -76 -100 -251 -252 0
-38 57 100 253 254 0
-38 57 100 253 -254 0
-38 57 100 -253 254 0
-38 57 100 -253 -254 0
-38 46 82 255 256 0
-38 46 82 255 -256 0
-38 46 82 -255 256 0
-38 46 82 -255 -256 0
46 -57 -82 257 258 0
46 -57 -82 257 -258 0
46 -57 -82 -257 258 0
46 -57 -82 -257 -258 0
-20 -46 -57 259 260 0
-20 -46 -57 259 -260 0
-20 -46 -57 -259 260 0
-20 -46 -57 -259 -260 0
20 -46 -48 261 262 0
20 -46 -48 261 -262 0
20 -46 -48 -261 262 0
20 -46 -48 -261 -262 0
20 48 99 263 264 0
20 48 99 263 -264 0
20 48 99 -263 264 0
20 48 99 -263 -264 0
32 48 -99 265 266 0
32 48 -99 265 -266 0
32 48 -99 -265 266 0
32 48 -99 -265 -266 0
-3 -32 -99 267 268 0
-3 -32 -99 267 -268 0
-3 -32 -99 -267 268 0
-3 -32 -99 -267 -268 0
-1 -32 -99 269 270 0
-1 -32 -99 269 -270 0
-1 -32 -99 -269 270 0
-1 -32 -99 -269 -270 0
1 3 18 271 272 0
1 3 18 271 -272 0
1 3 18 -271 272 0
1 3 18 -271 -272 0
1 -18 74 273 274 0
1 -18 74 273 -274 0
1 -18 74 -273 274 0
1 -18 74 -273 -274 0
-18 47 -74 275 276 0
-18 47 -74 275 -276 0
-18 47 -74 -275 276 0
-18 47 -74 -275 -276 0
-47 -52 -74 277 278 0
-47 -52 -74 277 -278 0
-47 -52 -74 -277 278 0
-47 -52 -74 -277 -278 0
-12 -47 52 279 280 0
-12 -47 52 279 -280 0
-12 -47 52 -279 280 0
-12 -47 52 -279 -280 0
-47 52 53 281 282 0
-47 52 53 281 -282 0
-47 52 53 -281 282 0
-47 52 53 -281 -282 0
12 29 -53 283 284 0
12 29 -53 283 -284 0
12 29 -53 -283 284 0
12 29 -53 -283 -284 0
12 -53 85 285 286 0
12 -53 85 285 -286 0
12 -53 85 -285 286 0
12 -53 85 -285 -286 0
21 -29 -85 287 288 0
21 -29 -85 287 -288 0
21 -29 -85 -287 288 0
21 -29 -85 -287 -288 0
10 -21 -85 289 290 0
10 -21 -85 289 -290 0
10 -21 -85 -289 290 0
10 -21 -85 -289 -290 0
-10 -21 -88 291 292 0
-10 -21 -88 291 -292 0
-10 -21 -88 -291 292 0
-10 -21 -88 -291 -292 0
-10 -43 88 293 294 0
-10 -43 88 293 -294 0
-10 -43 88 -293 294 0
-10 -43 88 -293 -294 0
-10 -73 88 295 296 0
-10 -73 88 295 -296 0
-10 -73 88 -295 296 0
-10 -73 88 -295 -296 0
19 43 73 297 298 0
19 43 73 297 -298 0
19 43 73 -297 298 0
19 43 73 -297 -298 0
11 -19 -28 299 300 0
11 -19 -28 299 -300 0
11 -19 -28 -299 300 0
11 -19 -28 -299 -300 0
-11 -28 73 301 302 0
-11 -28 73 301 -302 0
-11 -28 73 -301 302 0
-11 -28 73 -301 -302 0
-19 22 73 303 304 0
-19 22 73 303 -304 0
-19 22 73 -303 304 0
-19 22 73 -303 -304 0
-19 -22 67 305 306 0
-19 -22 67 305 -306 0
-19 -22 67 -305 306 0
-19 -22 67 -305 -306 0
-22 -67 78 307 308 0
-22 -67 78 307 -308 0
-22 -67 78 -307 308 0
-22 -67 78 -307 -308 0
-67 -78 83 309 310 0
-67 -78 83 309 -310 0
-67 -78 83 -309 310 0
-67 -78 83 -309 -310 0
-78 -83 -96 311 312 0
-78 -83 -96 311 -312 0
-78 -83 -96 -311 312 0
-78 -83 -96 -311 -312 0
24 33 -83 313 314 0
24 33 -83 313 -314 0
24 33 -83 -313 314 0
24 33 -83 -313 -314 0
-24 33 -78 315 316 0
-24 33 -78 315 -316 0
-24 33 -78 -315 316 0
-24 33 -78 -315 -316 0
-33 72 96 317 318 0
-33 72 96 317 -318 0
-33 72 96 -317 318 0
-33 72 96 -317 -318 0
-33 -72 80 319 320 0
-33 -72 80 319 -320 0
-33 -72 80 -319 320 0
-33 -72 80 -319 -320 0
49 -72 -80 321 322 0
49 -72 -80 321 -322 0
49 -72 -80 -321 322 0
49 -72 -80 -321 -322 0
-49 -55 -72 323 324 0
-49 -55 -72 323 -324 0
-49 -55 -72 -323 324 0
-49 -55 -72 -323 -324 0
-80 95 96 325 326 0
-80 95 96 325 -326 0
-80 95 96 -325 326 0
-80 95 96 -325 -326 0
-49 -80 95 327 328 0
-49 -80 95 327 -328 0
-49 -80 95 -327 328 0
-49 -80 95 -327 -328 0
34 -49 -95 329 330 0
34 -49 -95 329 -330 0
34 -49 -95 -329 330 0
34 -49 -95 -329 -330 0
-34 -50 -95 331 332 0
-34 -50 -95 331 -332 0
-34 -50 -95 -331 332 0
-34 -50 -95 -331 -332 0
-34 50 -61 333 334 0
-34 50 -61 333 -334 0
-34 50 -61 -333 334 0
-34 50 -61 -333 -334 0
50 61 -77 335 336 0
50 61 -77 335 -336 0
50 61 -77 -335 336 0
50 61 -77 -335 -336 0
61 -66 77 337 338 0
61 -66 77 337 -338 0
61 -66 77 -337 338 0
61 -66 77 -337 -338 0
66 77 91 339 340 0
66 77 91 339 -340 0
66 77 91 -339 340 0
66 77 91 -339 -340 0
-16 66 91 341 342 0
-16 66 91 341 -342 0
-16 66 91 -341 342 0
-16 66 91 -341 -342 0
-54 77 -91 343 344 0
-54 77 -91 343 -344 0
-54 77 -91 -343 344 0
-54 77 -91 -343 -344 0
-45 54 -91 345 346 0
-45 54 -91 345 -346 0
-45 54 -91 -345 346 0
-45 54 -91 -345 -346 0
-6 54 -91 347 348 0
-6 54 -91 347 -348 0
-6 54 -91 -347 348 0
-6 54 -91 -347 -348 0
6 45 -82 349 350 0
6 45 -82 349 -350 0
6 45 -82 -349 350 0
6 45 -82 -349 -350 0
6 39 45 351 352 0
6 39 45 351 -352 0
6 39 45 -351 352 0
6 39 45 -351 -352 0
-1 -7 68 353 354 0
-1 -7 68 353 -354 0
-1 -7 68 -353 354 0
-1 -7 68 -353 -354 0
44 62 100 355 356 0
44 62 100 355 -356 0
44 62 100 -355 356 0
44 62 100 -355 -356 0
11 31 63 357 358 0
11 31 63 357 -358 0
11 31 63 -357 358 0
11 31 63 -357 -358 0
8 -41 -66 359 360 0
8 -41 -66 359 -360 0
8 -41 -66 -359 360 0
8 -41 -66 -359 -360 0
12 -71 82 361 362 0
12 -71 82 361 -362 0
12 -71 82 -361 362 0
12 -71 82 -361 -362 0
57 -61 -73 363 364 0
57 -61 -73 363 -364 0
57 -61 -73 -363 364 0
57 -61 -73 -363 -364 0
-43 -50 90 365 366 0
-43 -50 90 365 -366 0
-43 -50 90 -365 366 0
-43 -50 90 -365 -366 0
32 62 -77 367 368 0
32 62 -77 367 -368 0
32 62 -77 -367 368 0
32 62 -77 -367 -368 0
-5 9 80 369 370 0
-5 9 80 369 -370 0
-5 9 80 -369 370 0
-5 9 80 -369 -370 0
-25 -52 -70 371 372 0
-25 -52 -70 371 -372 0
-25 -52 -70 -371 372 0
-25 -52 -70 -371 -372 0
-6 -88 92 373 374 0
-6 -88 92 373 -374 0
-6 -88 92 -373 374 0
-6 -88 92 -373 -374 0
-59 76 83 375 376 0
-59 76 83 375 -376 0
-59 76 83 -375 376 0
-59 76 83 -375 -376 0
47 -60 90 377 378 0
47 -60 90 377 -378 0
47 -60 90 -377 378 0
47 -60 90 -377 -378 0
35 -37 80 379 380 0
35 -37 80 379 -380 0
35 -37 80 -379 380 0
35 -37 80 -379 -380 0
15 78 79 381 382 0
15 78 79 381 -382 0
15 78 79 -381 382 0
15 78 79 -381 -382 0
-17 -26 72 383 384 0
-17 -26 72 383 -384 0
-17 -26 72 -383 384 0
-17 -26 72 -383 -384 0
2 10 76 385 386 0
2 10 76 385 -386 0
2 10 76 -385 386 0
2 10 76 -385 -386 0
12 -61 92 387 388 0
12 -61 92 387 -388 0
12 -61 92 -387 388 0
12 -61 92 -387 -388 0
-13 21 34 389 390 0
-13 21 34 389 -390 0
-13 21 34 -389 390 0
-13 21 34 -389 -390 0
-6 -61 95 391 392 0
-6 -61 95 391 -392 0
-6 -61 95 -391 392 0
-6 -61 95 -391 -392 0
30 -75 86 393 394 0
30 -75 86 393 -394 0
30 -75 86 -393 394 0
30 -75 86 -393 -394 0
-16 -65 95 395 396 0
-16 -65 95 395 -396 0
-16 -65 95 -395 396 0
-16 -65 95 -395 -396 0
19 -37 59 397 398 0
19 -37 59 397 -398 0
19 -37 59 -397 398 0
19 -37 59 -397 -398 0
19 69 -73 399 400 0
19 69 -73 399 -400 0
19 69 -73 -399 400 0
19 69 -73 -399 -400 0
-20 -23 -31 401 402 0
-20 -23 -31 401 -402 0
-20 -23 -31 -401 402 0
-20 -23 -31 -401 -402 0
-1 -26 -65 403 404 0
-1 -26 -65 403 -404 0
-1 -26 -65 -403 404 0
-1 -26 -65 -403 -404 0
-54 -55 71 405 406 0
-54 -55 71 405 -406 0
-54 -55 71 -405 406 0
-54 -55 71 -405 -406 0
28 34 -39 407 408 0
28 34 -39 407 -408 0
28 34 -39 -407 408 0
28 34 -39 -407 -408 0
-20 49 -66 409 410 0
-20 49 -66 409 -410 0
-20 49 -66 -409 410 0
-20 49 -66 -409 -410 0
-23 28 79 411 412 0
-23 28 79 411 -412 0
-23 28 79 -411 412 0
-23 28 79 -411 -412 0
18 49 76 413 414 0
18 49 76 413 -414 0
18 49 76 -413 414 0
18 49 76 -413 -414 0
-39 -84 99 415 416 0
-39 -84 99 415 -416 0
-39 -84 99 -415 416 0
-39 -84 99 -415 -416 0
8 -23 -98 417 418 0
8 -23 -98 417 -418 0
8 -23 -98 -417 418 0
8 -23 -98 -417 -418 0
8 9 74 419 420 0
8 9 74 419 -420 0
8 9 74 -419 420 0
8 9 74 -419 -420 0
